; benchmark generated from python API
(set-info :status unknown)
(declare-fun x_days () Int)
(assert
 (>= x_days (- 36584)))
(assert
 (<= x_days 36829))
(assert
 (>= x_days 8341))
(assert
 (let ((?x1881 (+ x_days 730179)))
(let ((?x345 (mod ?x1881 146097)))
(let ((?x1512 (div ?x345 36524)))
(let ((?x1938 (ite (<= 4 ?x1512) 3 ?x1512)))
(let ((?x1486 (- ?x345 (* ?x1938 36524))))
(let ((?x1017 (mod ?x1486 1461)))
(let ((?x1405 (div ?x1017 365)))
(let ((?x1642 (ite (<= 4 ?x1405) 3 ?x1405)))
(let ((?x1856 (+ (+ (* (div ?x1881 146097) 400) (* ?x1938 100)) (* (div ?x1486 1461) 4))))
(let ((?x1372 (+ (+ ?x1856 ?x1642) 1)))
(let (($x1901 (or (and (= (mod ?x1372 4) 0) (and (distinct (mod ?x1372 100) 0) true)) (= (mod ?x1372 400) 0))))
(let ((?x1566 (- ?x1017 (* ?x1642 365))))
(let ((?x269 (ite $x1901 31 31)))
(let (($x1896 (>= ?x1566 ?x269)))
(let ((?x1425 (ite $x1896 (+ (- ?x1566 ?x269) 1) (+ (- ?x1566 (ite $x1901 0 0)) 1))))
(let ((?x1126 (ite $x1901 60 59)))
(let (($x783 (>= ?x1566 ?x1126)))
(let ((?x1475 (ite $x1901 91 90)))
(let (($x1544 (>= ?x1566 ?x1475)))
(let ((?x1816 (ite $x1544 (+ (- ?x1566 ?x1475) 1) (ite $x783 (+ (- ?x1566 ?x1126) 1) ?x1425))))
(let ((?x1259 (ite $x1901 121 120)))
(let (($x1721 (>= ?x1566 ?x1259)))
(let ((?x1443 (ite $x1901 152 151)))
(let (($x1520 (>= ?x1566 ?x1443)))
(let ((?x1446 (ite $x1520 (+ (- ?x1566 ?x1443) 1) (ite $x1721 (+ (- ?x1566 ?x1259) 1) ?x1816))))
(let ((?x247 (ite $x1901 182 181)))
(let (($x986 (>= ?x1566 ?x247)))
(let ((?x1871 (ite $x1901 213 212)))
(let (($x1859 (>= ?x1566 ?x1871)))
(let ((?x1946 (ite $x1859 (+ (- ?x1566 ?x1871) 1) (ite $x986 (+ (- ?x1566 ?x247) 1) ?x1446))))
(let ((?x1130 (ite $x1901 244 243)))
(let (($x1119 (>= ?x1566 ?x1130)))
(let ((?x225 (ite $x1901 274 273)))
(let (($x383 (>= ?x1566 ?x225)))
(let ((?x2070 (ite $x383 (+ (- ?x1566 ?x225) 1) (ite $x1119 (+ (- ?x1566 ?x1130) 1) ?x1946))))
(let ((?x2151 (ite $x1901 305 304)))
(let (($x1610 (>= ?x1566 ?x2151)))
(let ((?x1903 (ite $x1901 335 334)))
(let (($x939 (>= ?x1566 ?x1903)))
(let ((?x1941 (ite $x939 (+ (- ?x1566 ?x1903) 1) (ite $x1610 (+ (- ?x1566 ?x2151) 1) ?x2070))))
(let ((?x821 (+ (* 0 12) 1)))
(let ((?x2084 (ite $x1721 5 (ite $x1544 4 (ite $x783 3 (ite $x1896 2 1))))))
(let ((?x1767 (ite $x1119 9 (ite $x1859 8 (ite $x986 7 (ite $x1520 6 ?x2084))))))
(let ((?x1890 (- (+ (ite $x939 12 (ite $x1610 11 (ite $x383 10 ?x1767))) ?x821) 1)))
(let ((?x836 (+ (mod ?x1890 12) 1)))
(let ((?x628 (ite (or (= ?x836 4) (= ?x836 6) (= ?x836 9) (= ?x836 11)) 30 31)))
(let (($x1138 (and (= (mod (+ ?x1372 (+ 0 (div ?x1890 12))) 4) 0) (and (distinct (mod (+ ?x1372 (+ 0 (div ?x1890 12))) 100) 0) true))))
(let (($x1539 (or $x1138 (= (mod (+ ?x1372 (+ 0 (div ?x1890 12))) 400) 0))))
(let ((?x1677 (ite (= ?x836 2) (ite $x1539 29 28) ?x628)))
(let ((?x1964 (ite (> 1 ?x1941) 1 (ite (> ?x1941 ?x1677) ?x1677 ?x1941))))
(let ((?x1545 (ite (> 1 ?x1964) 1 (ite (> ?x1964 ?x1677) ?x1677 ?x1964))))
(let ((?x2090 (ite (= 2 ?x836) (ite $x1539 31 31) (ite (= 1 ?x836) (ite $x1539 0 0) 0))))
(let ((?x2106 (ite (= 4 ?x836) (ite $x1539 91 90) (ite (= 3 ?x836) (ite $x1539 60 59) ?x2090))))
(let ((?x2021 (ite (= 6 ?x836) (ite $x1539 152 151) (ite (= 5 ?x836) (ite $x1539 121 120) ?x2106))))
(let ((?x2042 (ite (= 8 ?x836) (ite $x1539 213 212) (ite (= 7 ?x836) (ite $x1539 182 181) ?x2021))))
(let ((?x2157 (ite (= 10 ?x836) (ite $x1539 274 273) (ite (= 9 ?x836) (ite $x1539 244 243) ?x2042))))
(let ((?x2143 (ite (= 12 ?x836) (ite $x1539 335 334) (ite (= 11 ?x836) (ite $x1539 305 304) ?x2157))))
(let ((?x1195 (+ (* 365 (- (+ ?x1372 (+ 0 (div ?x1890 12))) 1)) (div (- (+ ?x1372 (+ 0 (div ?x1890 12))) 1) 4))))
(let ((?x1986 (+ (- ?x1195 (div (- (+ ?x1372 (+ 0 (div ?x1890 12))) 1) 100)) (div (- (+ ?x1372 (+ 0 (div ?x1890 12))) 1) 400))))
(let ((?x2128 (+ (+ (- (+ (+ ?x1986 ?x2143) (- ?x1545 1)) 730179) 0) 730179)))
(let ((?x2122 (mod ?x2128 146097)))
(let ((?x2125 (div ?x2122 36524)))
(let ((?x2117 (ite (<= 4 ?x2125) 3 ?x2125)))
(let ((?x2124 (- ?x2122 (* ?x2117 36524))))
(let ((?x2132 (mod ?x2124 1461)))
(let ((?x2139 (div ?x2132 365)))
(let ((?x2147 (ite (<= 4 ?x2139) 3 ?x2139)))
(let ((?x2015 (+ (+ (* (div ?x2128 146097) 400) (* ?x2117 100)) (* (div ?x2124 1461) 4))))
(let ((?x2041 (+ (+ ?x2015 ?x2147) 1)))
(let (($x2069 (or (and (= (mod ?x2041 4) 0) (and (distinct (mod ?x2041 100) 0) true)) (= (mod ?x2041 400) 0))))
(let ((?x2161 (- ?x2132 (* ?x2147 365))))
(let ((?x2081 (ite $x2069 31 31)))
(let (($x1171 (>= ?x2161 ?x2081)))
(let ((?x1197 (ite $x1171 (+ (- ?x2161 ?x2081) 1) (+ (- ?x2161 (ite $x2069 0 0)) 1))))
(let ((?x2085 (ite $x2069 60 59)))
(let (($x1169 (>= ?x2161 ?x2085)))
(let ((?x2083 (ite $x2069 91 90)))
(let (($x1883 (>= ?x2161 ?x2083)))
(let ((?x1304 (ite $x1883 (+ (- ?x2161 ?x2083) 1) (ite $x1169 (+ (- ?x2161 ?x2085) 1) ?x1197))))
(let ((?x2087 (ite $x2069 121 120)))
(let (($x434 (>= ?x2161 ?x2087)))
(let ((?x1807 (ite $x2069 152 151)))
(let (($x2062 (>= ?x2161 ?x1807)))
(let ((?x1256 (ite $x2062 (+ (- ?x2161 ?x1807) 1) (ite $x434 (+ (- ?x2161 ?x2087) 1) ?x1304))))
(let ((?x1810 (ite $x2069 182 181)))
(let (($x1213 (>= ?x2161 ?x1810)))
(let ((?x1809 (ite $x2069 213 212)))
(let (($x2064 (>= ?x2161 ?x1809)))
(let ((?x367 (ite $x2064 (+ (- ?x2161 ?x1809) 1) (ite $x1213 (+ (- ?x2161 ?x1810) 1) ?x1256))))
(let ((?x516 (ite $x2069 244 243)))
(let (($x1554 (>= ?x2161 ?x516)))
(let ((?x513 (ite $x2069 274 273)))
(let (($x406 (>= ?x2161 ?x513)))
(let ((?x1989 (ite $x406 (+ (- ?x2161 ?x513) 1) (ite $x1554 (+ (- ?x2161 ?x516) 1) ?x367))))
(let ((?x510 (ite $x2069 305 304)))
(let (($x1323 (>= ?x2161 ?x510)))
(let ((?x1689 (ite $x2069 335 334)))
(let (($x1556 (>= ?x2161 ?x1689)))
(let ((?x2184 (ite $x1556 (+ (- ?x2161 ?x1689) 1) (ite $x1323 (+ (- ?x2161 ?x510) 1) ?x1989))))
(let (($x1067 (= 0 0)))
(let (($x1933 (= (mod (ite $x1067 (+ ?x1372 (+ 0 (div ?x1890 12))) ?x2041) 400) 0)))
(let (($x1963 (and (distinct (mod (ite $x1067 (+ ?x1372 (+ 0 (div ?x1890 12))) ?x2041) 100) 0) true)))
(let (($x1965 (= (mod (ite $x1067 (+ ?x1372 (+ 0 (div ?x1890 12))) ?x2041) 4) 0)))
(let (($x1936 (or (and $x1965 $x1963) $x1933)))
(let ((?x2063 (ite $x434 5 (ite $x1883 4 (ite $x1169 3 (ite $x1171 2 1))))))
(let ((?x1212 (ite $x1554 9 (ite $x2064 8 (ite $x1213 7 (ite $x2062 6 ?x2063))))))
(let ((?x2033 (ite $x1067 ?x836 (ite $x1556 12 (ite $x1323 11 (ite $x406 10 ?x1212))))))
(let ((?x877 (ite (= 2 ?x2033) (ite $x1936 31 31) (ite (= 1 ?x2033) (ite $x1936 0 0) 0))))
(let ((?x1163 (ite (= 4 ?x2033) (ite $x1936 91 90) (ite (= 3 ?x2033) (ite $x1936 60 59) ?x877))))
(let ((?x1741 (ite (= 6 ?x2033) (ite $x1936 152 151) (ite (= 5 ?x2033) (ite $x1936 121 120) ?x1163))))
(let ((?x1954 (ite (= 8 ?x2033) (ite $x1936 213 212) (ite (= 7 ?x2033) (ite $x1936 182 181) ?x1741))))
(let ((?x1618 (ite (= 10 ?x2033) (ite $x1936 274 273) (ite (= 9 ?x2033) (ite $x1936 244 243) ?x1954))))
(let ((?x1187 (ite (= 12 ?x2033) (ite $x1936 335 334) (ite (= 11 ?x2033) (ite $x1936 305 304) ?x1618))))
(let ((?x1673 (+ ?x1372 (+ 0 (div ?x1890 12)))))
(let ((?x577 (ite $x1067 ?x1673 ?x2041)))
(let ((?x1180 (- ?x577 1)))
(let ((?x1969 (+ (- (+ (* 365 ?x1180) (div ?x1180 4)) (div ?x1180 100)) (div ?x1180 400))))
(let (($x1889 (<= (- (+ (+ ?x1969 ?x1187) (- (ite $x1067 ?x1545 ?x2184) 1)) 730179) (+ x_days 31))))
(not $x1889))))))))))))))))))))))))))))))))))))))))))))))))))))))))))))))))))))))))))))))))))))))))))))))))))))))))))))))))))))))))
(check-sat)
